c This is an example DIMACS 3-sat file with 3 satisfying solutions: 1 -2 3 0, -1 -2 -3 0, 1 2 -3 0
p cnf 3 5
-1 -2 -3 0
1 -2 3 0
1 2 -3 0
1 -2 -3 0
-1 2 3 0


Il risultato ottenuto è un istogramma con le soluzioni 000-->(-1 -2 -3), 011-->(1 2 -3), 101-->(1 -2 3)
